#Name of Data file: PLS_10_5.dat;

param N_Product:= 10;
param N_Segment:= 5;

param:
 dev_cost	profit:=
	1	15000	50
	2	12000	60
	3	9000	40
	4	7000	55
	5	6000 	35
	6	5000	45
	7	6000	55
	8	10000	60
	9	8000	55
	10	9500	45;
	
param:
 seg_size	reserv_util:=
	1	6000	4
	2	8500	4
	3	9500	4
	4	7000 	4
	5	9000	4;

param utility(tr):
	1	2	3	4	5:=
1	6	9	8	4	10
2	4	3	9	5	4
3	-2	10	7	1	9
4	4	5	7	8	9
5	-4	9	4	2	5
6	6	9	9	6	10
7	7	9	3	7	1
8	9	2	4	7	3
9	8	8	10	-1	-4
10	6	5	10	6	10;
